NAME : local_5
TYPE : ATSP
DIMENSION : 26
EDGE_WEIGHT_TYPE : EXPLICIT
EDGE_WEIGHT_FORMAT : FULL_MATRIX
EDGE_WEIGHT_SECTION
0 10000000 10000000 508 10000000 10000000 417 592 10000000 711 411 991 10000000 10000000 10000000 729 10000000 1088 10000000 10000000 674 825 718 10000000 10000000 10000000 
0 0 790 10000000 10000000 937 985 10000000 548 10000000 10000000 10000000 301 10000000 175 525 314 189 10000000 605 10000000 10000000 715 755 760 892 
0 790 0 10000000 10000000 463 10000000 10000000 250 10000000 10000000 10000000 493 10000000 674 977 10000000 973 10000000 10000000 10000000 10000000 10000000 910 10000000 10000000 
0 10000000 10000000 0 920 10000000 913 599 10000000 745 462 10000000 10000000 10000000 10000000 10000000 10000000 10000000 818 10000000 261 371 10000000 10000000 10000000 10000000 
0 10000000 10000000 920 0 10000000 10000000 839 10000000 864 920 959 10000000 385 10000000 10000000 10000000 10000000 273 10000000 10000000 991 10000000 837 679 680 
0 937 463 10000000 10000000 0 690 10000000 577 10000000 10000000 10000000 718 10000000 892 864 10000000 10000000 10000000 10000000 10000000 10000000 913 10000000 10000000 10000000 
0 983 10000000 913 10000000 690 0 782 984 841 666 10000000 979 10000000 10000000 627 10000000 10000000 10000000 10000000 10000000 10000000 587 10000000 10000000 10000000 
0 10000000 10000000 599 839 10000000 782 0 10000000 147 190 449 10000000 946 10000000 10000000 10000000 10000000 924 10000000 861 945 10000000 10000000 10000000 10000000 
0 548 250 10000000 10000000 577 984 10000000 0 10000000 10000000 10000000 247 10000000 425 817 811 734 10000000 10000000 10000000 10000000 966 740 10000000 886 
0 10000000 10000000 745 864 10000000 841 147 10000000 0 328 302 10000000 915 10000000 10000000 10000000 10000000 989 10000000 10000000 10000000 10000000 10000000 10000000 10000000 
0 10000000 10000000 462 920 10000000 666 190 10000000 328 0 629 10000000 10000000 10000000 1088 10000000 10000000 954 10000000 720 827 10000000 10000000 10000000 10000000 
0 10000000 10000000 10000000 959 10000000 10000000 449 10000000 302 629 0 10000000 900 10000000 10000000 10000000 10000000 10000000 10000000 10000000 10000000 10000000 10000000 10000000 10000000 
0 301 493 10000000 10000000 718 1006 10000000 247 10000000 10000000 10000000 0 10000000 190 654 571 489 10000000 903 10000000 10000000 827 684 929 836 
0 10000000 10000000 10000000 385 10000000 10000000 946 10000000 915 10000000 900 10000000 0 10000000 10000000 10000000 10000000 642 10000000 10000000 10000000 10000000 620 787 424 
0 175 674 10000000 10000000 892 10000000 10000000 425 10000000 10000000 10000000 190 10000000 0 661 386 354 10000000 767 10000000 10000000 848 609 753 759 
0 525 977 10000000 10000000 864 627 10000000 817 10000000 1149 10000000 654 10000000 661 0 730 494 10000000 650 10000000 10000000 190 10000000 10000000 10000000 
0 314 10000000 10000000 10000000 10000000 10000000 10000000 811 10000000 10000000 10000000 571 10000000 386 730 0 252 1016 492 10000000 10000000 911 720 489 827 
0 189 973 10000000 10000000 10000000 10000000 10000000 734 10000000 10000000 10000000 489 10000000 354 494 252 0 10000000 416 10000000 10000000 675 877 732 999 
0 10000000 10000000 818 273 10000000 10000000 924 10000000 989 954 10000000 10000000 642 10000000 10000000 977 10000000 0 10000000 903 795 10000000 980 613 856 
0 605 10000000 10000000 10000000 10000000 10000000 10000000 10000000 10000000 10000000 10000000 903 10000000 767 650 492 416 10000000 0 10000000 10000000 762 10000000 842 10000000 
0 10000000 10000000 261 10000000 10000000 10000000 861 10000000 10000000 720 10000000 10000000 10000000 10000000 10000000 10000000 10000000 903 10000000 0 183 10000000 10000000 10000000 10000000 
0 10000000 10000000 371 991 10000000 10000000 945 10000000 10000000 827 10000000 10000000 10000000 10000000 10000000 10000000 10000000 795 10000000 183 0 10000000 10000000 10000000 10000000 
0 715 10000000 10000000 10000000 913 587 10000000 966 10000000 10000000 10000000 827 10000000 848 190 911 675 10000000 762 10000000 10000000 0 10000000 10000000 10000000 
0 755 910 10000000 837 10000000 10000000 10000000 740 10000000 10000000 10000000 684 620 609 10000000 720 877 980 10000000 10000000 10000000 10000000 0 655 205 
0 760 10000000 10000000 679 10000000 10000000 10000000 10000000 10000000 10000000 10000000 929 787 753 10000000 489 732 613 842 10000000 10000000 10000000 655 0 652 
0 10000000 10000000 10000000 10000000 10000000 10000000 10000000 10000000 10000000 10000000 10000000 10000000 10000000 10000000 10000000 10000000 10000000 10000000 10000000 10000000 10000000 10000000 10000000 10000000 0 
EOF